36 32
7 755
25 577
11 222
21 400
13 481
26 568
16 341
20 573
20 541
2 602
31 598
13 376
3 643
4 378
27 107
8 957
12 854
30 395
3 652
11 151
21 970
26 625
9 319
26 427
12 298
4 879
8 125
27 463
17 734
22 282
30 770
7 343
10 24
13 225
23 669
20 597
